1622543400
1622558040
1622629800
1622644200
1622716200
1622730600
1622802600
1622817000
1623061800
1623076320
1623148200
1623162600
1623234600
1623249000
1623321000
1623335520
1623407400
1623419280
1623666600
1623681000
1623753000
1623767640
1623839400
1623854040
1623925800
1623940260
1624012200
1624022160
1624271400
1624286340
1624357800
1624372860
1624444200
1624459320
1624530600
1624546140
1624617000
1624631640
1624873800
1624891380
1624962600
1624977780
1624885200
1625049000
1625065260
